Geographic Exponential Decay
20 276 296 118 60 301 103 256 178 157 76 84 249 188 248 71 37 108 304 128 58
p edge 320 321
e 0 61 6.0
e 1 226 3.0
e 1 0 1.0
e 2 100 3.0
e 2 1 1.0
e 3 162 1.0
e 3 2 1.0
e 4 289 2.0
e 4 42 6.0
e 4 3 17.0
e 5 106 1.0
e 5 4 21.0
e 6 166 1.0
e 6 5 1.0
e 7 198 2.0
e 7 6 1.0
e 8 181 1.0
e 8 7 5.0
e 9 38 1.0
e 9 8 4.0
e 10 177 2.0
e 10 9 3.0
e 11 164 1.0
e 11 10 1.0
e 12 196 2.0
e 12 11 1.0
e 13 272 10.0
e 13 12 4.0
e 14 127 6.0
e 14 13 1.0
e 15 215 5.0
e 15 14 5.0
e 16 145 3.0
e 16 15 2.0
e 17 18 1.0
e 17 16 1.0
e 19 84 73.0
e 19 17 1.0
e 20 219 2.0
e 20 19 1.0
e 21 290 1.0
e 21 20 7.0
e 22 262 1.0
e 22 21 2.0
e 23 236 1.0
e 23 22 2.0
e 24 92 1.0
e 24 23 2.0
e 25 199 1.0
e 25 171 3.0
e 25 24 16.0
e 26 153 1.0
e 26 25 5.0
e 27 284 1.0
e 27 26 6.0
e 28 29 2.0
e 28 27 2.0
e 30 121 1.0
e 30 28 2.0
e 31 105 12.0
e 31 30 7.0
e 32 88 2.0
e 32 31 1.0
e 33 76 31.0
e 33 32 2.0
e 34 246 1.0
e 34 33 2.0
e 35 51 2.0
e 35 34 2.0
e 36 234 1.0
e 36 43 19.0
e 36 35 8.0
e 37 91 16.0
e 37 39 96.0
e 37 151 30.0
e 37 116 9.0
e 37 229 69.0
e 37 36 63.0
e 40 301 50.0
e 40 204 22.0
e 40 37 58.0
e 41 230 1.0
e 41 40 18.0
e 44 133 2.0
e 44 41 1.0
e 45 129 1.0
e 45 44 1.0
e 46 134 10.0
e 46 139 14.0
e 46 45 13.0
e 47 206 6.0
e 47 46 15.0
e 48 66 1.0
e 48 47 4.0
e 49 178 1.0
e 49 48 1.0
e 50 197 3.0
e 50 49 1.0
e 52 178 96.0
e 53 178 57.0
e 54 157 8.0
e 54 50 4.0
e 55 265 3.0
e 55 54 5.0
e 56 195 12.0
e 56 55 5.0
e 57 120 1.0
e 57 56 5.0
e 58 146 73.0
e 58 169 53.0
e 58 313 22.0
e 58 89 27.0
e 58 71 20.0
e 59 60 87.0
e 59 57 4.0
e 60 306 49.0
e 60 79 60.0
e 60 274 6.0
e 60 264 50.0
e 62 174 1.0
e 62 59 1.0
e 63 104 1.0
e 63 62 3.0
e 64 131 6.0
e 64 63 1.0
e 65 271 2.0
e 65 64 5.0
e 67 237 4.0
e 67 65 1.0
e 68 235 5.0
e 68 67 2.0
e 69 135 2.0
e 69 68 1.0
e 70 260 1.0
e 70 69 4.0
e 71 252 78.0
e 71 304 7.0
e 71 163 18.0
e 71 228 40.0
e 72 101 6.0
e 72 70 6.0
e 73 202 4.0
e 73 72 1.0
e 74 231 2.0
e 74 200 11.0
e 74 73 16.0
e 75 207 1.0
e 75 74 19.0
e 76 165 62.0
e 76 93 99.0
e 76 94 30.0
e 76 148 93.0
e 77 90 2.0
e 77 75 1.0
e 78 208 2.0
e 78 77 1.0
e 80 189 1.0
e 80 78 1.0
e 81 87 1.0
e 81 80 3.0
e 82 136 2.0
e 82 81 2.0
e 83 107 2.0
e 83 82 1.0
e 84 137 59.0
e 84 85 94.0
e 84 86 31.0
e 84 95 100.0
e 96 147 1.0
e 96 83 3.0
e 97 238 3.0
e 97 96 1.0
e 98 295 2.0
e 98 97 1.0
e 99 122 1.0
e 99 98 1.0
e 101 102 5.0
e 103 142 49.0
e 103 108 21.0
e 103 109 7.0
e 103 128 56.0
e 103 167 74.0
e 103 99 93.0
e 108 239 9.0
e 108 110 82.0
e 108 309 73.0
e 108 293 39.0
e 111 180 2.0
e 111 103 44.0
e 112 160 3.0
e 112 111 1.0
e 113 114 3.0
e 113 112 2.0
e 115 240 2.0
e 115 113 2.0
e 117 205 5.0
e 117 115 3.0
e 118 273 30.0
e 118 119 35.0
e 118 227 5.0
e 118 143 67.0
e 118 268 45.0
e 118 117 22.0
e 123 124 2.0
e 123 118 80.0
e 125 126 1.0
e 125 123 1.0
e 128 130 97.0
e 128 188 85.0
e 128 132 40.0
e 128 186 81.0
e 138 140 3.0
e 138 125 10.0
e 141 296 73.0
e 141 138 12.0
e 144 212 12.0
e 144 141 11.0
e 149 150 10.0
e 149 144 11.0
e 152 154 1.0
e 152 149 2.0
e 155 201 4.0
e 155 152 4.0
e 156 303 16.0
e 157 158 84.0
e 157 159 87.0
e 157 161 19.0
e 157 241 86.0
e 168 203 6.0
e 168 155 10.0
e 170 226 18.0
e 172 173 2.0
e 172 168 6.0
e 175 176 24.0
e 175 178 19.0
e 175 179 34.0
e 178 182 24.0
e 183 184 9.0
e 183 172 12.0
e 185 187 3.0
e 185 183 9.0
e 188 190 56.0
e 188 191 92.0
e 188 192 41.0
e 188 193 65.0
e 193 194 16.0
e 209 232 3.0
e 209 185 1.0
e 210 211 5.0
e 210 209 4.0
e 213 318 1.0
e 213 210 5.0
e 214 216 3.0
e 214 213 1.0
e 217 311 11.0
e 217 214 2.0
e 218 291 1.0
e 218 217 6.0
e 220 278 5.0
e 220 218 4.0
e 221 222 8.0
e 221 220 12.0
e 223 224 11.0
e 223 294 17.0
e 223 221 24.0
e 225 233 1.0
e 225 223 16.0
e 242 243 6.0
e 242 225 1.0
e 244 257 6.0
e 244 242 1.0
e 245 247 8.0
e 245 248 44.0
e 245 249 85.0
e 245 244 16.0
e 248 263 7.0
e 248 314 22.0
e 248 317 72.0
e 248 249 76.0
e 249 275 47.0
e 249 250 28.0
e 249 251 54.0
e 253 254 31.0
e 253 255 25.0
e 253 256 84.0
e 253 245 24.0
e 255 256 78.0
e 255 258 3.0
e 256 259 24.0
e 256 312 56.0
e 256 261 32.0
e 266 267 5.0
e 266 253 45.0
e 269 270 7.0
e 269 266 9.0
e 276 277 27.0
e 276 279 8.0
e 276 280 63.0
e 276 281 55.0
e 276 282 69.0
e 276 269 14.0
e 283 285 1.0
e 283 276 25.0
e 286 287 16.0
e 286 283 3.0
e 287 288 24.0
e 289 292 23.0
e 296 297 90.0
e 296 298 54.0
e 296 299 51.0
e 296 300 65.0
e 301 302 93.0
e 301 303 55.0
e 301 304 3.0
e 301 305 90.0
e 304 307 21.0
e 304 308 72.0
e 304 310 68.0
e 315 316 7.0
e 315 286 1.0
e 319 315 1.0
